Li6Gd(BO3)3
1.0
16.604852 0.0 0.0
4.1408559716423747e-16 6.762531 0.0
4.471933110557866e-16 1.8048986251837411 7.038297279647366
Li Gd B O
24 4 12 36
Direct
0.035087 0.44455 0.693288
0.55214 0.583064 0.861189
0.05214 0.916936 0.138811
0.44786 0.416936 0.138811
0.496308 0.82422 0.071551
0.996308 0.67578 0.928449
0.503692 0.17578 0.928449
0.003692 0.32422 0.071551
0.530044 0.329899 0.546684
0.030044 0.170101 0.453316
0.469956 0.670101 0.453316
0.969956 0.829899 0.546684
0.794306 0.134383 0.714172
0.294306 0.365617 0.285828
0.205694 0.865617 0.285828
0.705694 0.634383 0.714172
0.535087 0.05545 0.306712
0.94786 0.083064 0.861189
0.464913 0.94455 0.693288
0.964913 0.55545 0.306712
0.704225 0.046884 0.439166
0.204225 0.453116 0.560834
0.295775 0.953116 0.560834
0.795775 0.546884 0.439166
0.810386 0.347301 0.079553
0.310386 0.152699 0.920447
0.189614 0.652699 0.920447
0.689614 0.847301 0.079553
0.135094 0.161767 0.917246
0.864906 0.838233 0.082754
0.364906 0.661767 0.917246
0.635094 0.338233 0.082754
0.614468 0.688666 0.440328
0.114468 0.811334 0.559672
0.385532 0.311334 0.559672
0.885532 0.188666 0.440328
0.880074 0.500449 0.712428
0.380074 0.999551 0.287572
0.119926 0.499551 0.287572
0.619926 0.000449 0.712428
0.673295 0.52627 0.004076
0.173295 0.97373 0.995924
0.684451 0.167147 0.149085
0.326705 0.47373 0.995924
0.577649 0.576785 0.604868
0.077649 0.923215 0.395132
0.422351 0.423215 0.395132
0.922351 0.076785 0.604868
0.696992 0.72647 0.423952
0.196992 0.77353 0.576048
0.303008 0.27353 0.576048
0.803008 0.22647 0.423952
0.931852 0.270774 0.277928
0.431852 0.229226 0.722072
0.068148 0.729226 0.722072
0.568148 0.770774 0.277928
0.91223 0.587156 0.536547
0.41223 0.912844 0.463453
0.08777 0.412844 0.463453
0.58777 0.087156 0.536547
0.701177 0.944499 0.737539
0.201177 0.555501 0.262461
0.298823 0.055501 0.262461
0.798823 0.444499 0.737539
0.926908 0.459502 0.877265
0.426908 0.040498 0.122735
0.073092 0.540498 0.122735
0.573092 0.959502 0.877265
0.946857 0.823843 0.085844
0.446857 0.676157 0.914156
0.053143 0.176157 0.914156
0.553143 0.323843 0.085844
0.815549 0.667147 0.149085
0.315549 0.832853 0.850915
0.184451 0.332853 0.850915
0.826705 0.02627 0.004076
