CaS
1.0
4.041992 0.0 0.0
2.0209960000000002 3.5004677538934703 0.0
2.0209960000000002 0.8541734153688428 2.8581199527017747
Ca S
1 1
Direct
0 0 0
0.5 0.5 0.5
