CeF3
1.0
7.181113 0.0 0.0
-3.590557042712412 6.219025972111493 0.0
4.485824891523995e-16 6.935867581277802e-16 6.344422114134587
Ce F
6 18
Direct
0.658083 0 0.25
0 0.658083 0.25
0.341917 0.341917 0.25
0.341917 0 0.75
0 0.341917 0.75
0.658083 0.658083 0.75
0.368543 0.058775 0.079372
0.941225 0.309767 0.079372
0.690233 0.631457 0.079372
0.309767 0.941225 0.420628
0.631457 0.690233 0.420628
0.058775 0.368543 0.420628
0.631457 0.941225 0.920628
0.058775 0.690233 0.920628
0.309767 0.368543 0.920628
0.690233 0.058775 0.579372
0.368543 0.309767 0.579372
0.941225 0.631457 0.579372
0.333333 0.666667 0.187367
0.666667 0.333333 0.312633
0.666667 0.333333 0.812633
0.333333 0.666667 0.687367
0 0 0.25
0 0 0.75
