GdBrO
1.0
3.906437 0.0 0.0
2.3920027840603946e-16 3.906437 0.0
5.375435880977612e-16 2.3920027840603946e-16 8.778753
Gd Br O
2 2 2
Direct
0.5 0 0.866414
0 0.5 0.133586
0 0.5 0.677915
0.5 0 0.322085
0 0 0
0.5 0.5 0
