SrSe
1.0
4.457495 0.0 0.0
2.2287475000000003 3.8603039072421157 0.0
2.2287475000000003 0.9419795309192943 3.1519249416051287
Sr Se
1 1
Direct
0 0 0
0.5 0.5 0.5
