ScBO3
1.0
5.855269 0.0 0.0
3.8867607031055083 4.379185574870718 0.0
3.8867594278502597 0.43705326184361387 3.0032568941934454
Sc B O
2 2 6
Direct
0 0 0
0.5 0.5 0.5
0.25 0.25 0.25
0.75 0.75 0.75
0.539048 0.25 0.960952
0.25 0.960952 0.539048
0.039048 0.460952 0.75
0.460952 0.75 0.039048
0.75 0.039048 0.460952
0.960952 0.539048 0.25
