LaMg(BO2)5
1.0
7.676405 0.0 0.0
5.448895094577667e-16 8.898721 0.0
7.83557250203197e-16 5.934169695861498 9.535745909134842
La Mg B O
4 4 20 40
Direct
0.189377 0.949503 0.235234
0.689377 0.050497 0.264766
0.810623 0.050497 0.764766
0.310623 0.949503 0.735234
0.41271 0.488545 0.121044
0.91271 0.511455 0.378956
0.58729 0.511455 0.878956
0.08729 0.488545 0.621044
0.67062 0.901658 0.610886
0.815106 0.487504 0.084629
0.466954 0.731325 0.552001
0.315106 0.512496 0.415371
0.966954 0.268675 0.947999
0.915645 0.642531 0.769232
0.17062 0.098342 0.889114
0.32938 0.098342 0.389114
0.084355 0.357469 0.230768
0.415645 0.357469 0.730768
0.533046 0.268675 0.447999
0.905911 0.841429 0.50905
0.82938 0.901658 0.110886
0.094089 0.158571 0.49095
0.594089 0.841429 0.00905
0.184894 0.512496 0.915371
0.405911 0.158571 0.99095
0.684894 0.487504 0.584629
0.033046 0.731325 0.052001
0.584355 0.642531 0.269232
0.422245 0.673508 0.315322
0.476721 0.233614 0.35457
0.523279 0.766386 0.64543
0.778656 0.968283 0.491547
0.03559 0.121834 0.606398
0.922245 0.326492 0.184678
0.776852 0.781811 0.742125
0.373069 0.31821 0.490063
0.653071 0.43754 0.069278
0.104043 0.919206 0.913829
0.976721 0.766386 0.14543
0.276852 0.218189 0.757875
0.895957 0.080794 0.086171
0.346929 0.56246 0.930722
0.604043 0.080794 0.586171
0.221344 0.031717 0.508453
0.846929 0.43754 0.569278
0.344926 0.562609 0.624544
0.023279 0.233614 0.85457
0.721344 0.968283 0.991547
0.153071 0.56246 0.430722
0.53662 0.677028 0.140975
0.844926 0.437391 0.875456
0.655074 0.437391 0.375456
0.223148 0.218189 0.257875
0.395957 0.919206 0.413829
0.03662 0.322972 0.359025
0.155074 0.562609 0.124544
0.873069 0.68179 0.009937
0.278656 0.031717 0.008453
0.126931 0.31821 0.990063
0.46338 0.322972 0.859025
0.723148 0.781811 0.242125
0.577755 0.326492 0.684678
0.53559 0.878166 0.893602
0.626931 0.68179 0.509937
0.46441 0.121834 0.106398
0.96441 0.878166 0.393602
0.96338 0.677028 0.640975
0.077755 0.673508 0.815322
