LaBO3
1.0
5.144524 0.0 0.0
3.6245448811218504e-16 5.919331 0.0
5.077034767956971e-16 3.6245448811218504e-16 8.291427
La B O
4 4 12
Direct
0.25 0.256477 0.415325
0.75 0.743523 0.584675
0.25 0.756477 0.084675
0.75 0.243523 0.915325
0.25 0.420632 0.760681
0.75 0.579368 0.239319
0.25 0.920632 0.739319
0.75 0.079368 0.260681
0.75 0.091728 0.426701
0.25 0.908272 0.573299
0.75 0.591728 0.073299
0.25 0.408272 0.926701
0.982284 0.084152 0.176322
0.482284 0.915848 0.823678
0.517716 0.584152 0.323678
0.017716 0.415848 0.676322
0.017716 0.915848 0.823678
0.517716 0.084152 0.176322
0.482284 0.415848 0.676322
0.982284 0.584152 0.323678
