CeP5O14
1.0
9.255743 0.0 0.0
5.475406860809008e-16 8.942018 0.0
8.06982845268347e-16 0.06635623690093281 13.178667129345273
Ce P O
4 20 56
Direct
0.187966 0.222964 0.998898
0.687966 0.777036 0.501102
0.812034 0.777036 0.001102
0.312034 0.222964 0.498898
0.247524 0.813753 0.999773
0.747524 0.186247 0.500227
0.752476 0.186247 0.000227
0.252476 0.813753 0.499773
0.547229 0.255838 0.836118
0.047229 0.744162 0.663882
0.452771 0.744162 0.163882
0.952771 0.255838 0.336118
0.005051 0.99278 0.205323
0.505051 0.00722 0.294677
0.994949 0.00722 0.794677
0.494949 0.99278 0.705323
0.550344 0.272195 0.162779
0.050344 0.727805 0.337221
0.449656 0.727805 0.837221
0.949656 0.272195 0.662779
0.001889 0.494147 0.176352
0.501889 0.505853 0.323648
0.998111 0.505853 0.823648
0.498111 0.494147 0.676352
0.316442 0.707752 0.910843
0.816442 0.292248 0.589157
0.683558 0.292248 0.089157
0.183558 0.707752 0.410843
0.312447 0.966503 0.99482
0.812447 0.033497 0.50518
0.687553 0.033497 0.00518
0.187553 0.966503 0.49482
0.311419 0.722128 0.098451
0.811419 0.277872 0.401549
0.688581 0.277872 0.901549
0.188581 0.722128 0.598451
0.580471 0.368975 0.746896
0.080471 0.631025 0.753104
0.419529 0.631025 0.253104
0.919529 0.368975 0.246896
0.572479 0.094624 0.791373
0.072479 0.905376 0.708627
0.427521 0.905376 0.208627
0.927521 0.094624 0.291373
0.408769 0.278392 0.889604
0.908769 0.721608 0.610396
0.591231 0.721608 0.110396
0.091231 0.278392 0.389604
0.116319 0.083577 0.151404
0.616319 0.916423 0.348596
0.883681 0.916423 0.848596
0.383681 0.083577 0.651404
0.094058 0.874236 0.275898
0.594058 0.125764 0.224102
0.905942 0.125764 0.724102
0.405942 0.874236 0.775898
0.406331 0.270347 0.114864
0.906331 0.729653 0.385136
0.593669 0.729653 0.885136
0.093669 0.270347 0.614864
0.581646 0.406495 0.236437
0.081646 0.593505 0.263563
0.418354 0.593505 0.763563
0.918354 0.406495 0.736437
0.119714 0.420476 0.118208
0.619714 0.579524 0.381792
0.880286 0.579524 0.881792
0.380286 0.420476 0.618208
0.910955 0.212564 0.000872
0.410955 0.787436 0.499128
0.089045 0.787436 0.999128
0.589045 0.212564 0.500872
0.113623 0.086996 0.847875
0.613623 0.913004 0.652125
0.886377 0.913004 0.152125
0.386377 0.086996 0.347875
0.11395 0.417382 0.874262
0.61395 0.582618 0.625738
0.88605 0.582618 0.125738
0.38605 0.417382 0.374262
