La(BO2)3
1.0
6.495624 0.0 0.0
1.2771208992106262 6.36883767717277 0.0
3.0909332133960326 2.439337540408974 5.1259156080160295
La B O
2 6 12
Direct
0.202193 0.797807 0.75
0.797807 0.202193 0.25
0.777064 0.222936 0.75
0.796681 0.658074 0.418739
0.341926 0.203319 0.081261
0.222936 0.777064 0.25
0.658074 0.796681 0.918739
0.203319 0.341926 0.581261
0.788407 0.416551 0.510603
0.583449 0.211593 0.989397
0.989918 0.220872 0.784195
0.779128 0.010082 0.715805
0.010082 0.779128 0.215805
0.220872 0.989918 0.284195
0.618495 0.788004 0.500474
0.211996 0.381505 0.999526
0.381505 0.211996 0.499526
0.788004 0.618495 0.000474
0.416551 0.788407 0.010603
0.211593 0.583449 0.489397
