SrF2
1.0
4.147816 0.0 0.0
2.0739080000000003 3.592114026223555 0.0
2.0739080000000003 0.8765366579254814 2.93294882071406
Sr F
1 2
Direct
0 0 0
0.75 0.75 0.75
0.25 0.25 0.25
