LaBr3
1.0
8.12706 0.0 0.0
-4.0635296314785885 7.038240630846284 0.0
2.762936053054136e-16 7.84950819353231e-16 3.907694667517567
La Br
2 6
Direct
0.666667 0.333333 0.75
0.333333 0.666667 0.25
0.61088 0.697828 0.75
0.913053 0.61088 0.25
0.38912 0.302172 0.25
0.086947 0.38912 0.75
0.302172 0.913053 0.75
0.697828 0.086947 0.25
