LaCl3
1.0
7.602965 0.0 0.0
-3.8014819254061063 6.584361165825861 0.0
2.6791647010818613e-16 7.343311640581484e-16 3.7892146708348386
La Cl
2 6
Direct
0.666667 0.333333 0.75
0.333333 0.666667 0.25
0.607999 0.694903 0.75
0.913095 0.607999 0.25
0.392001 0.305097 0.25
0.086905 0.392001 0.75
0.305097 0.913095 0.75
0.694903 0.086905 0.25
