CaCO3
1.0
6.463326 0.0 0.0
4.4894375241970925 4.649681031921124 0.0
4.489437686501576 0.15472098788166444 3.0510488500096273
Ca C O
2 2 6
Direct
0.5 0.5 0.5
0 0 0
0.25 0.25 0.25
0.75 0.75 0.75
0.992743 0.507257 0.25
0.25 0.992743 0.507257
0.507257 0.25 0.992743
0.75 0.007257 0.492743
0.492743 0.75 0.007257
0.007257 0.492743 0.75
