GdBr3
1.0
7.367843 0.0 0.0
-3.6954391924119943 6.374075591631652 0.0
1.139908356149079 1.7762296454603204 6.152852626637425
Gd Br
2 6
Direct
0.166318 0.833682 0
0.833682 0.166318 0
0.93734 0.570482 0.771707
0.429518 0.06266 0.228293
0.795603 0.795603 0.228795
0.204397 0.204397 0.771205
0.570482 0.93734 0.771707
0.06266 0.429518 0.228293
