GdAlO3
1.0
5.284571 0.0 0.0
3.2888661318585635e-16 5.371126 0.0
4.598906939987062e-16 3.2888661318585635e-16 7.510585
Gd Al O
4 4 12
Direct
0.010071 0.956427 0.75
0.510071 0.543573 0.25
0.489929 0.456427 0.75
0.989929 0.043573 0.25
0.5 0 0.5
0 0.5 0.5
0 0.5 0
0.5 0 0
0.712903 0.287592 0.458986
0.212903 0.212408 0.541014
0.787097 0.787592 0.041014
0.287097 0.712408 0.958986
0.287097 0.712408 0.541014
0.787097 0.787592 0.458986
0.212903 0.212408 0.958986
0.712903 0.287592 0.041014
0.077181 0.482594 0.25
0.577181 0.017406 0.75
0.422819 0.982594 0.25
0.922819 0.517406 0.75
