LiYSiO4
1.0
6.251053 0.0 0.0
3.3383853375054864e-16 5.451997 0.0
6.698841259625205e-16 2.184719715529837 10.023273003227313
Li Y Si O
4 4 4 16
Direct
0.134111 0.918484 0.429857
0.634111 0.081516 0.070143
0.865889 0.081516 0.570143
0.365889 0.918484 0.929857
0.11597 0.445838 0.847382
0.88403 0.554162 0.152618
0.61597 0.554162 0.652618
0.38403 0.445838 0.347382
0.652177 0.903655 0.359355
0.347823 0.096345 0.640645
0.152177 0.096345 0.140645
0.847823 0.903655 0.859355
0.858547 0.230029 0.775724
0.641453 0.230029 0.275724
0.163325 0.185339 0.524201
0.837223 0.757634 0.752823
0.141453 0.769971 0.224276
0.570745 0.225863 0.555302
0.662777 0.757634 0.252823
0.429255 0.774137 0.444698
0.070745 0.774137 0.944698
0.663325 0.814661 0.975799
0.162777 0.242366 0.247177
0.929255 0.225863 0.055302
0.336675 0.185339 0.024201
0.337223 0.242366 0.747177
0.358547 0.769971 0.724276
0.836675 0.814661 0.475799
