Cs2NaYCl6
1.0
7.717105 0.0 0.0
3.858552500000001 6.68320897367191 0.0
3.858552500000001 1.6308161754426962 5.456817276628611
Cs Na Y Cl
2 1 1 6
Direct
0.75 0.75 0.75
0.25 0.25 0.25
0.5 0.5 0.5
0 0 0
0.757504 0.242496 0.242496
0.242496 0.242496 0.757504
0.242496 0.757504 0.757504
0.242496 0.757504 0.242496
0.757504 0.242496 0.757504
0.757504 0.757504 0.242496
