CaSO4
1.0
7.050783 0.0 0.0
-3.525392032862726 6.106156886922987 0.0
3.894782179379101e-16 6.809988539704729e-16 5.508494599350077
Ca S O
3 3 12
Direct
0 0.5 0.666667
0.5 0.5 0.333333
0.5 0 0
0 0.5 0.166667
0.5 0.5 0.833333
0.5 0 0.5
0.447032 0.311204 0.974351
0.688796 0.135828 0.641018
0.864172 0.552968 0.307685
0.135828 0.447032 0.307685
0.552968 0.864172 0.358982
0.552968 0.688796 0.974351
0.447032 0.135828 0.358982
0.311204 0.447032 0.692315
0.135828 0.688796 0.025649
0.864172 0.311204 0.025649
0.688796 0.552968 0.692315
0.311204 0.864172 0.641018
