LiCaAlF6
1.0
5.083179 0.0 0.0
-2.541590114657764 4.4021617911106965 0.0
5.969880661930537e-16 4.909581285848897e-16 8.44336162494617
Li Ca Al F
2 2 2 12
Direct
0.333333 0.666667 0.25
0.666667 0.333333 0.75
0 0 0
0 0 0.5
0.666667 0.333333 0.25
0.333333 0.666667 0.75
0.375818 0.031324 0.143129
0.624182 0.655506 0.643129
0.344494 0.968676 0.643129
0.031324 0.375818 0.643129
0.968676 0.624182 0.356871
0.968676 0.344494 0.143129
0.655506 0.624182 0.143129
0.655506 0.031324 0.356871
0.031324 0.655506 0.856871
0.375818 0.344494 0.356871
0.624182 0.968676 0.856871
0.344494 0.375818 0.856871
