Cs2LiYCl6
1.0
7.51489 0.0 0.0
3.757445000000001 6.50808564664564 0.0
3.757445000000001 1.5880831177847863 5.313829678870973
Cs Li Y Cl
2 1 1 6
Direct
0.75 0.75 0.75
0.25 0.25 0.25
0.5 0.5 0.5
0 0 0
0.750319 0.249681 0.249681
0.249681 0.249681 0.750319
0.249681 0.750319 0.750319
0.249681 0.750319 0.249681
0.750319 0.249681 0.750319
0.750319 0.750319 0.249681
