Ca3La3(BO3)5
1.0
10.604684 0.0 0.0
-5.30234216028974 9.183925650563049 0.0
3.9461646851309263e-16 1.0242518064362492e-15 5.581166476379966
Ca La B O
6 6 10 30
Direct
0.473013 0.526987 0.764182
0.946027 0.473013 0.264182
0.526987 0.053973 0.264182
0.473013 0.946027 0.764182
0.053973 0.526987 0.764182
0.526987 0.473013 0.264182
0.155615 0.844385 0.079512
0.31123 0.155615 0.579512
0.844385 0.68877 0.579512
0.155615 0.31123 0.079512
0.68877 0.844385 0.079512
0.844385 0.155615 0.579512
0 0 0.746164
0.333333 0.666667 0.098176
0.666667 0.333333 0.598176
0 0 0.246164
0.802062 0.197938 0.047816
0.604125 0.802062 0.547816
0.197938 0.395875 0.547816
0.802062 0.604125 0.047816
0.395875 0.197938 0.047816
0.197938 0.802062 0.547816
0.180853 0.590427 0.097505
0.590427 0.409573 0.597505
0.409573 0.819147 0.097505
0.590427 0.180853 0.597505
0.819147 0.409573 0.597505
0.409573 0.590427 0.097505
0.225933 0.774067 0.745031
0.451867 0.225933 0.245031
0.774067 0.548133 0.245031
0.774067 0.225933 0.245031
0.225933 0.451867 0.745031
0.548133 0.774067 0.745031
0.628196 0.928422 0.44634
0.699774 0.628196 0.94634
0.928422 0.300226 0.94634
0.071578 0.699774 0.44634
0.300226 0.371804 0.44634
0.371804 0.071578 0.94634
0.300226 0.928422 0.44634
0.628196 0.699774 0.44634
0.071578 0.371804 0.44634
0.928422 0.628196 0.94634
0.699774 0.071578 0.94634
0.371804 0.300226 0.94634
0.075294 0.924706 0.739528
0.150587 0.075294 0.239528
0.924706 0.849413 0.239528
0.075294 0.150587 0.739528
0.849413 0.924706 0.739528
0.924706 0.075294 0.239528
