Lu2Si2O7
1.0
5.578735 0.0 0.0
-1.473009823126071 5.38075517573501 0.0
0.6126463007803956 0.9140708274358664 4.489194347006233
Lu Si O
2 2 7
Direct
0.308574 0.691426 0
0.691426 0.308574 0
0.779406 0.779406 0.40984
0.220594 0.220594 0.59016
0.388169 0.083294 0.782644
0.916706 0.611831 0.217356
0.611831 0.916706 0.217356
0.083294 0.388169 0.782644
0 0 0.5
0.386098 0.386098 0.283605
0.613902 0.613902 0.716395
