LuPO4
1.0
5.676638 0.0 0.0
-2.5460529764437556 5.073641022400569 0.0
-1.565292525754894 -2.3507871393091215 4.317835784677623
Lu P O
2 2 8
Direct
0.5 0.5 0
0.75 0.25 0.5
0.25 0.75 0.5
0 0 0
0.836085 0.012776 0.176691
0.909395 0.586085 0.323309
0.262776 0.586085 0.676691
0.836085 0.659395 0.823309
0.340605 0.163915 0.176691
0.413915 0.737224 0.323309
0.413915 0.090605 0.676691
0.987224 0.163915 0.823309
