CaYAl3O7
1.0
7.759011 0.0 0.0
-0.023053103500116398 7.758976752932052 0.0
3.1216944958941545e-16 4.765140009861371e-16 5.098091497717613
Ca Y Al O
2 2 6 14
Direct
0.338923 0.661077 0.515431
0.661077 0.338923 0.515431
0.161528 0.161528 0.485004
0.838472 0.838472 0.485004
0.5 0 0.000859
0 0.5 0.000859
0.142613 0.857387 0.956196
0.354331 0.354331 0.043996
0.857387 0.142613 0.956196
0.645669 0.645669 0.043996
0.337296 0.913362 0.799208
0.156311 0.402078 0.204811
0.662704 0.086638 0.799208
0.843689 0.597922 0.204811
0.597922 0.843689 0.204811
0.913362 0.337296 0.799208
0.402078 0.156311 0.204811
0.086638 0.662704 0.799208
0.130731 0.869269 0.298725
0.347187 0.347187 0.702651
0.869269 0.130731 0.298725
0.652813 0.652813 0.702651
0.5 0.5 0.183347
0 0 0.794872
