LaAlO3
1.0
3.811266 0.0 0.0
2.333727353799568e-16 3.811266 0.0
2.333727353799568e-16 2.333727353799568e-16 3.811266
La Al O
1 1 3
Direct
0.5 0.5 0.5
0 0 0
0 0.5 0
0 0 0.5
0.5 0 0
