LaF3
1.0
7.246506 0.0 0.0
-3.623252780938199 6.275658411151743 0.0
4.525591010062507e-16 6.999026592724634e-16 6.400664850580302
La F
6 18
Direct
0.342676 0.342676 0.75
0 0.657324 0.75
0.657324 0 0.75
0.657324 0.657324 0.25
0 0.342676 0.25
0.342676 0 0.25
0 0 0.75
0 0 0.25
0.333333 0.666667 0.814851
0.666667 0.333333 0.685149
0.666667 0.333333 0.185149
0.333333 0.666667 0.314851
0.309469 0.939196 0.579901
0.060804 0.370273 0.579901
0.629727 0.690531 0.579901
0.370273 0.060804 0.920099
0.690531 0.629727 0.920099
0.939196 0.309469 0.920099
0.690531 0.060804 0.420099
0.939196 0.629727 0.420099
0.370273 0.309469 0.420099
0.629727 0.939196 0.079901
0.309469 0.370273 0.079901
0.060804 0.690531 0.079901
