CaSe
1.0
4.21765 0.0 0.0
2.1088250000000004 3.6525920442714375 0.0
2.1088250000000004 0.8912943185761872 2.982328915671441
Ca Se
1 1
Direct
0 0 0
0.5 0.5 0.5
