LiLa(PO3)4
1.0
9.145688 0.0 0.0
6.300391188849039 6.629380051016639 0.0
5.480748500916432 0.24852710303315914 5.826398772455972
Li La P O
2 2 8 24
Direct
0.203029 0.796971 0.25
0.796971 0.203029 0.75
0.701551 0.298449 0.25
0.298449 0.701551 0.75
0.08441 0.194318 0.385427
0.805682 0.91559 0.114573
0.91559 0.805682 0.614573
0.194318 0.08441 0.885427
0.193441 0.508697 0.199611
0.491303 0.806559 0.300389
0.806559 0.491303 0.800389
0.508697 0.193441 0.699611
0.901178 0.3298 0.318925
0.6702 0.098822 0.181075
0.098822 0.6702 0.681075
0.3298 0.901178 0.818925
0.159996 0.329179 0.353874
0.670821 0.840004 0.146126
0.840004 0.670821 0.646126
0.329179 0.159996 0.853874
0.939285 0.925213 0.431933
0.074787 0.060715 0.068067
0.060715 0.074787 0.568067
0.925213 0.939285 0.931933
0.280375 0.039423 0.269415
0.960577 0.719625 0.230585
0.719625 0.960577 0.730585
0.039423 0.280375 0.769415
0.326769 0.52248 0.23076
0.47752 0.673231 0.26924
0.673231 0.47752 0.76924
0.52248 0.326769 0.73076
0.484599 0.254745 0.536759
0.745255 0.515401 0.963241
0.515401 0.745255 0.463241
0.254745 0.484599 0.036759
