Lu3Al5O12
1.0
10.36223 0.0 0.0
-3.4540767289902994 9.769604112918172 0.0
-3.4540767289902994 -4.675277292683218 7.97684826525872
Lu Al O
12 20 48
Direct
0.375 0.125 0.25
0.75 0.125 0.375
0.25 0.375 0.125
0.125 0.25 0.375
0.375 0.75 0.125
0.125 0.375 0.75
0.625 0.875 0.75
0.25 0.875 0.625
0.75 0.625 0.875
0.875 0.75 0.625
0.625 0.25 0.875
0.875 0.625 0.25
0 0 0
0.5 0 0
0 0.5 0
0 0 0.5
0.5 0.5 0
0 0.5 0.5
0.5 0 0.5
0.5 0.5 0.5
0.625 0.375 0.25
0.75 0.375 0.625
0.25 0.125 0.875
0.875 0.25 0.125
0.125 0.875 0.25
0.875 0.125 0.75
0.25 0.625 0.375
0.375 0.25 0.625
0.75 0.875 0.125
0.125 0.75 0.875
0.375 0.625 0.75
0.625 0.75 0.375
0.418428 0.821156 0.797445
0.879017 0.402729 0.081572
0.097271 0.976289 0.678844
0.523711 0.620983 0.702555
0.678844 0.081572 0.702555
0.620983 0.702555 0.523711
0.620983 0.418428 0.097271
0.702555 0.523711 0.620983
0.821156 0.523711 0.402729
0.976289 0.797445 0.879017
0.797445 0.879017 0.976289
0.702555 0.678844 0.081572
0.418428 0.097271 0.620983
0.402729 0.821156 0.523711
0.081572 0.702555 0.678844
0.097271 0.620983 0.418428
0.523711 0.402729 0.821156
0.081572 0.879017 0.402729
0.976289 0.678844 0.097271
0.178844 0.476289 0.597271
0.678844 0.097271 0.976289
0.797445 0.418428 0.821156
0.402729 0.081572 0.879017
0.879017 0.976289 0.797445
0.581572 0.178844 0.202555
0.120983 0.597271 0.918428
0.902729 0.023711 0.321156
0.476289 0.379017 0.297445
0.321156 0.918428 0.297445
0.379017 0.297445 0.476289
0.379017 0.581572 0.902729
0.297445 0.476289 0.379017
0.120983 0.023711 0.202555
0.597271 0.918428 0.120983
0.202555 0.581572 0.178844
0.178844 0.202555 0.581572
0.321156 0.902729 0.023711
0.023711 0.321156 0.902729
0.918428 0.120983 0.597271
0.476289 0.597271 0.178844
0.902729 0.379017 0.581572
0.918428 0.297445 0.321156
0.597271 0.178844 0.476289
0.581572 0.902729 0.379017
0.297445 0.321156 0.918428
0.202555 0.120983 0.023711
0.023711 0.202555 0.120983
0.821156 0.797445 0.418428
