Gd(BO2)3
1.0
6.38318 0.0 0.0
1.1812497721489008 6.272928812620001 0.0
2.9135372375653494 2.390467316445113 4.967546072122211
Gd B O
2 6 12
Direct
0.291256 0.708744 0.75
0.708744 0.291256 0.25
0.29357 0.163342 0.909135
0.836658 0.70643 0.590865
0.724085 0.275915 0.75
0.275915 0.724085 0.25
0.70643 0.836658 0.090865
0.163342 0.29357 0.409135
0.512427 0.281011 0.706329
0.716931 0.081412 0.995427
0.918588 0.283069 0.504573
0.283069 0.918588 0.004573
0.297619 0.115155 0.488946
0.884845 0.702381 0.011054
0.702381 0.884845 0.511054
0.115155 0.297619 0.988946
0.487573 0.718989 0.293671
0.281011 0.512427 0.206329
0.081412 0.716931 0.495427
0.718989 0.487573 0.793671
