CsSrCl3
1.0
5.729386 0.0 0.0
3.5082371129898286e-16 5.729386 0.0
3.5082371129898286e-16 3.5082371129898286e-16 5.729386
Cs Sr Cl
1 1 3
Direct
0.5 0.5 0.5
0 0 0
0.5 0 0
0 0.5 0
0 0 0.5
