Li6Y(BO3)3
1.0
16.54186 0.0 0.0
4.1173182601627625e-16 6.724091 0.0
4.450155828852028e-16 1.7869812997832597 7.006309349694516
Li Y B O
24 4 12 36
Direct
0.552789 0.584732 0.862425
0.052789 0.915268 0.137575
0.447211 0.415268 0.137575
0.947211 0.084732 0.862425
0.795276 0.545623 0.438379
0.295276 0.954377 0.561621
0.204724 0.454377 0.561621
0.704724 0.045623 0.438379
0.964725 0.555717 0.306643
0.464725 0.944283 0.693357
0.035275 0.444283 0.693357
0.535275 0.055717 0.306643
0.705762 0.634507 0.715081
0.205762 0.865493 0.284919
0.294238 0.365493 0.284919
0.794238 0.134507 0.715081
0.969891 0.829778 0.546701
0.469891 0.670222 0.453299
0.030109 0.170222 0.453299
0.530109 0.329778 0.546701
0.004054 0.323992 0.071388
0.504054 0.176008 0.928612
0.995946 0.676008 0.928612
0.495946 0.823992 0.071388
0.810199 0.347216 0.079743
0.310199 0.152784 0.920257
0.189801 0.652784 0.920257
0.689801 0.847216 0.079743
0.635608 0.338275 0.083545
0.135608 0.161725 0.916455
0.364392 0.661725 0.916455
0.864392 0.838275 0.083545
0.620774 0.999329 0.714035
0.120774 0.500671 0.285965
0.379226 0.000671 0.285965
0.879226 0.499329 0.714035
0.884816 0.189383 0.439278
0.384816 0.310617 0.560722
0.115184 0.810617 0.560722
0.615184 0.689383 0.439278
0.82612 0.027737 0.007489
0.32612 0.472263 0.992511
0.17388 0.972263 0.992511
0.67388 0.527737 0.007489
0.685394 0.166262 0.145771
0.185394 0.333738 0.854229
0.314606 0.833738 0.854229
0.814606 0.666262 0.145771
0.55335 0.323776 0.087596
0.05335 0.176224 0.912404
0.44665 0.676224 0.912404
0.94665 0.823776 0.087596
0.574046 0.958254 0.879774
0.074046 0.541746 0.120226
0.425954 0.041746 0.120226
0.925954 0.458254 0.879774
0.79782 0.442367 0.740074
0.29782 0.057633 0.259926
0.20218 0.557633 0.259926
0.70218 0.942367 0.740074
0.588427 0.086308 0.53742
0.088427 0.413692 0.46258
0.411573 0.913692 0.46258
0.911573 0.586308 0.53742
0.568672 0.771244 0.276429
0.068672 0.728756 0.723571
0.431328 0.228756 0.723571
0.931328 0.271244 0.276429
0.802093 0.228416 0.421386
0.302093 0.271584 0.578614
0.197907 0.771584 0.578614
0.697907 0.728416 0.421386
0.92142 0.077134 0.605079
0.42142 0.422866 0.394921
0.07858 0.922866 0.394921
0.57858 0.577134 0.605079
