CePO4
1.0
7.09086 0.0 0.0
3.9848782197455724e-16 6.5078 0.0
5.05871037790133e-16 3.8151591075642792 6.692926938650479
Ce P O
4 4 16
Direct
0.658016 0.18739 0.213232
0.158016 0.81261 0.286768
0.341984 0.81261 0.786768
0.841984 0.18739 0.713232
0.661731 0.693574 0.195386
0.161731 0.306426 0.304614
0.338269 0.306426 0.804614
0.838269 0.693574 0.695386
0.711984 0.419145 0.372042
0.211984 0.580855 0.127958
0.288016 0.580855 0.627958
0.788016 0.419145 0.872042
0.602637 0.665004 0.028313
0.102637 0.334996 0.471687
0.397363 0.334996 0.971687
0.897363 0.665004 0.528313
0.994541 0.810584 0.749521
0.494541 0.189416 0.750479
0.005459 0.189416 0.250479
0.505459 0.810584 0.249521
0.669627 0.883859 0.61761
0.169627 0.116141 0.88239
0.330373 0.116141 0.38239
0.830373 0.883859 0.11761
