Sc2Si2O7
1.0
5.403942 0.0 0.0
-1.4249913119121138 5.212675790833244 0.0
0.640436161203478 0.9303469815096915 4.454385899695206
Sc Si O
2 2 7
Direct
0.310272 0.689728 0
0.689728 0.310272 0
0.776286 0.776286 0.406635
0.223714 0.223714 0.593365
0.392299 0.077378 0.788456
0.922622 0.607701 0.211544
0.607701 0.922622 0.211544
0.077378 0.392299 0.788456
0 0 0.5
0.394624 0.394624 0.280362
0.605376 0.605376 0.719638
