La(PO3)3
1.0
7.189697 0.0 0.0
-1.872428376673614 6.94159599271208 0.0
4.592096066813604e-16 5.589929843171671e-16 7.2406716676233405
La P O
2 6 18
Direct
0.870519 0.870519 0
0.129481 0.129481 0.5
0.3314 0.681879 0.048397
0.6686 0.318121 0.548397
0.681879 0.3314 0.951603
0.318121 0.6686 0.451603
0.251515 0.251515 0
0.748485 0.748485 0.5
0.251823 0.469254 0.961643
0.748177 0.530746 0.461643
0.469254 0.251823 0.038357
0.530746 0.748177 0.538357
0.777135 0.521716 0.034162
0.222865 0.478284 0.534162
0.521716 0.777135 0.965838
0.478284 0.222865 0.465838
0.372946 0.627054 0.25
0.627054 0.372946 0.75
0.826816 0.861901 0.333752
0.173184 0.138099 0.833752
0.861901 0.826816 0.666248
0.138099 0.173184 0.166248
0.221501 0.828478 0.461369
0.778499 0.171522 0.961369
0.828478 0.221501 0.538631
0.171522 0.778499 0.038631
