Ca3(BO3)2
1.0
6.427068 0.0 0.0
0.5481541009582612 6.403649752932045 0.0
0.5481544362525774 0.5012322725204439 6.360584669267281
Ca B O
6 4 12
Direct
0.25 0.606502 0.893498
0.893498 0.25 0.606502
0.606502 0.893498 0.25
0.75 0.393498 0.106502
0.106502 0.75 0.393498
0.393498 0.106502 0.75
0.882354 0.882354 0.882354
0.117646 0.117646 0.117646
0.382354 0.382354 0.382354
0.617646 0.617646 0.617646
0.218688 0.396419 0.538291
0.538291 0.218688 0.396419
0.396419 0.538291 0.218688
0.103581 0.281312 0.961709
0.281312 0.961709 0.103581
0.961709 0.103581 0.281312
0.461709 0.781312 0.603581
0.781312 0.603581 0.461709
0.603581 0.461709 0.781312
0.718688 0.038291 0.896419
0.038291 0.896419 0.718688
0.896419 0.718688 0.038291
