Gd(PO3)3
1.0
7.030054 0.0 0.0
-1.8381098918251408 6.785500075049042 0.0
4.461556678228691e-16 5.470748666837979e-16 7.0328079356613715
Gd P O
2 6 18
Direct
0.125921 0.125921 0.5
0.874079 0.874079 0
0.25043 0.25043 0
0.311671 0.665344 0.456318
0.688329 0.334656 0.956318
0.665344 0.311671 0.543682
0.334656 0.688329 0.043682
0.74957 0.74957 0.5
0.37279 0.62721 0.25
0.528133 0.747831 0.546658
0.468852 0.214542 0.462083
0.62721 0.37279 0.75
0.827151 0.211185 0.533371
0.86767 0.828058 0.670667
0.471867 0.252169 0.046658
0.747831 0.528133 0.453342
0.785458 0.531148 0.037917
0.13233 0.171942 0.170667
0.214542 0.468852 0.537917
0.172849 0.788815 0.033371
0.252169 0.471867 0.953342
0.788815 0.172849 0.966629
0.171942 0.13233 0.829333
0.531148 0.785458 0.962083
0.211185 0.827151 0.466629
0.828058 0.86767 0.329333
