LiYbF4
1.0
6.22244 0.0 0.0
1.4209608073603939 6.0580219492459495 0.0
-3.821700447591607 -2.9252879553629696 3.7629028292820696
Li Yb F
2 2 8
Direct
0.75 0.25 0.5
0 0 0
0.25 0.75 0.5
0.5 0.5 0
0.266439 0.816421 0.917149
0.850728 0.90071 0.417149
0.09929 0.516439 0.950018
0.566421 0.149272 0.049982
0.899272 0.34929 0.082851
0.183579 0.100728 0.450018
0.483561 0.433579 0.582851
0.65071 0.733561 0.549982
