Cs2LiLaCl6
1.0
7.67547 0.0 0.0
3.837735000000001 6.647152005985345 0.0
3.837735000000001 1.6220176646715512 5.427376885793908
Cs Li La Cl
2 1 1 6
Direct
0.75 0.75 0.75
0.25 0.25 0.25
0.5 0.5 0.5
0 0 0
0.743842 0.256158 0.256158
0.256158 0.256158 0.743842
0.256158 0.743842 0.743842
0.256158 0.743842 0.256158
0.743842 0.256158 0.743842
0.743842 0.743842 0.256158
