SrB4O7
1.0
4.280338 0.0 0.0
2.7385343532577256e-16 4.472366 0.0
6.637010067383055e-16 2.7385343532577256e-16 10.83906
Sr B O
2 8 14
Direct
0.507212 0.28877 0.5
0.007212 0.71123 0
0.004839 0.322309 0.751083
0.504839 0.677691 0.748917
0.030735 0.825875 0.621688
0.530735 0.174125 0.878312
0.530735 0.174125 0.121688
0.030735 0.825875 0.378312
0.504839 0.677691 0.251083
0.004839 0.322309 0.248917
0.960952 0.142197 0.642113
0.865245 0.229459 0.13572
0.365245 0.770541 0.36428
0.365245 0.770541 0.63572
0.361196 0.369406 0.221069
0.861196 0.630594 0.278931
0.861196 0.630594 0.721069
0.361196 0.369406 0.778931
0.460952 0.857803 0.142113
0.960952 0.142197 0.357887
0.924853 0.731362 0.5
0.424853 0.268638 0
0.865245 0.229459 0.86428
0.460952 0.857803 0.857887
