LuBr3
1.0
10.47031 0.0 0.0
-5.235154683482637 9.067554628239623 0.0
2.234438502235297e-16 1.0112732691323328e-15 3.1602263550199217
Lu Br
2 6
Direct
0.333333 0.666667 0.75
0.666667 0.333333 0.25
0.21827 0.43654 0.25
0.56346 0.78173 0.25
0.21827 0.78173 0.25
0.78173 0.56346 0.75
0.43654 0.21827 0.75
0.78173 0.21827 0.75
