ThO2
1.0
3.973425 0.0 0.0
1.9867125000000005 3.441086990032183 0.0
1.9867125000000005 0.8396835033226056 2.809635762036157
Th O
1 2
Direct
0 0 0
0.75 0.75 0.75
0.25 0.25 0.25
