Cs2LiYBr6
1.0
7.930517 0.0 0.0
3.965258500000001 6.868029187144355 0.0
3.965258500000001 1.675915437618548 5.607722349015194
Cs Li Y Br
2 1 1 6
Direct
0.75 0.75 0.75
0.25 0.25 0.25
0.5 0.5 0.5
0 0 0
0.749853 0.250147 0.250147
0.250147 0.250147 0.749853
0.250147 0.749853 0.749853
0.250147 0.749853 0.250147
0.749853 0.250147 0.749853
0.749853 0.749853 0.250147
