LiLuF4
1.0
6.353792 0.0 0.0
-2.346386652293909 5.904671240399502 0.0
1.966619052346297 3.4100164484515525 3.4715946962623505
Li Lu F
2 2 8
Direct
0.890042 0.109958 0.25
0.109958 0.890042 0.75
0.627421 0.372579 0.75
0.372579 0.627421 0.25
0.3658 0.954484 0.874472
0.243012 0.325813 0.781203
0.674187 0.756988 0.718797
0.6342 0.045516 0.125528
0.325813 0.243012 0.281203
0.756988 0.674187 0.218797
0.954484 0.3658 0.374472
0.045516 0.6342 0.625528
