CaYAlO4
1.0
6.489291 0.0 0.0
4.399656711845417 4.770106759873889 0.0
-5.444473841848088 -0.4228218984884331 1.9140338989963965
Ca Y Al O
1 1 1 4
Direct
0.643759 0.643759 0
0.358609 0.358609 0
0.00533 0.00533 0
0.832695 0.832695 0
0.170188 0.170188 0
0.994709 0.494709 0.5
0.494709 0.994709 0.5
