GdPO4
1.0
6.920687 0.0 0.0
3.9115084053618555e-16 6.387978 0.0
4.94150800528253e-16 3.7416209632939323 6.540870938312989
Gd P O
4 4 16
Direct
0.653582 0.189986 0.215857
0.153582 0.810014 0.284143
0.346418 0.810014 0.784143
0.846418 0.189986 0.715857
0.660163 0.690498 0.19802
0.160163 0.309502 0.30198
0.339837 0.309502 0.80198
0.839837 0.690498 0.69802
0.70841 0.410168 0.379263
0.20841 0.589832 0.120737
0.29159 0.589832 0.620737
0.79159 0.410168 0.879263
0.598911 0.656264 0.030073
0.098911 0.343736 0.469927
0.401089 0.343736 0.969927
0.901089 0.656264 0.530073
0.99756 0.817712 0.748451
0.49756 0.182288 0.751549
0.00244 0.182288 0.251549
0.50244 0.817712 0.248451
0.664563 0.879978 0.616491
0.164563 0.120022 0.883509
0.335437 0.120022 0.383509
0.835437 0.879978 0.116491
