BaMgF4
1.0
7.719418 0.0 0.0
-6.5957189412904125 4.010723863123324 0.0
3.6339281248969177e-16 1.2500068895333284e-15 3.0834270702667164
Ba Mg F
2 2 8
Direct
0.650355 0.349645 0.147771
0.349645 0.650355 0.647771
0.916154 0.083846 0.189949
0.083846 0.916154 0.689949
0.42163 0.57837 0.203878
0.57837 0.42163 0.703878
0.804257 0.195743 0.379477
0.195743 0.804257 0.879477
0.027268 0.972732 0.006203
0.972732 0.027268 0.506203
0.162253 0.837747 0.422202
0.837747 0.162253 0.922202
