CeBO3
1.0
5.112072 0.0 0.0
3.5676465661866655e-16 5.826409 0.0
5.039918785091813e-16 3.5676465661866655e-16 8.230812
Ce B O
4 4 12
Direct
0.25 0.256504 0.414174
0.75 0.743496 0.585826
0.25 0.756504 0.085826
0.75 0.243496 0.914174
0.25 0.420611 0.759477
0.75 0.579389 0.240523
0.25 0.920611 0.740523
0.75 0.079389 0.259477
0.75 0.090518 0.426542
0.25 0.909482 0.573458
0.75 0.590518 0.073458
0.25 0.409482 0.926542
0.983409 0.085106 0.17438
0.483409 0.914894 0.82562
0.516591 0.585106 0.32562
0.016591 0.414894 0.67438
0.016591 0.914894 0.82562
0.516591 0.085106 0.17438
0.483409 0.414894 0.67438
0.983409 0.585106 0.32562
