BaF2
1.0
4.442808 0.0 0.0
2.2214040000000006 3.847584592136734 0.0
2.2214040000000006 0.9388758026210885 3.141539664309842
Ba F
1 2
Direct
0 0 0
0.75 0.75 0.75
0.25 0.25 0.25
