MgS
1.0
3.697464 0.0 0.0
1.8487320000000005 3.2020977535784256 0.0
1.8487320000000005 0.7813660821405246 2.614501867593136
Mg S
1 1
Direct
0 0 0
0.5 0.5 0.5
