CaO
1.0
3.421878 0.0 0.0
1.7109390000000004 2.963433276651087 0.0
1.7109390000000004 0.7231279077829708 2.4196331381930603
Ca O
1 1
Direct
0 0 0
0.5 0.5 0.5
