LaP5O14
1.0
9.275744 0.0 0.0
5.465482323148719e-16 8.92581 0.0
8.116162964329211e-16 0.08649642768747101 13.254077626388899
La P O
4 20 56
Direct
0.687922 0.776257 0.001498
0.187922 0.223743 0.498502
0.312078 0.223743 0.998502
0.812078 0.776257 0.501498
0.050605 0.725184 0.837714
0.002646 0.492795 0.677375
0.493041 0.990826 0.205935
0.453407 0.746186 0.663604
0.502646 0.507205 0.822625
0.546593 0.253814 0.336396
0.993041 0.009174 0.294065
0.949395 0.274816 0.162286
0.497354 0.492795 0.177375
0.046593 0.746186 0.163604
0.251787 0.813291 0.999713
0.953407 0.253814 0.836396
0.449395 0.725184 0.337714
0.748213 0.186709 0.000287
0.751787 0.186709 0.500287
0.248213 0.813291 0.499713
0.006959 0.990826 0.705935
0.997354 0.507205 0.322625
0.550605 0.274816 0.662286
0.506959 0.009174 0.794065
0.620016 0.578135 0.882031
0.887721 0.913223 0.652637
0.117423 0.081981 0.651799
0.318204 0.705703 0.412637
0.590143 0.214078 0.001123
0.921057 0.364304 0.745738
0.81182 0.033349 0.006883
0.589823 0.720069 0.608998
0.68818 0.033349 0.506883
0.068089 0.908937 0.206566
0.818204 0.294297 0.087363
0.08189 0.588886 0.765999
0.421057 0.635696 0.754262
0.91811 0.411114 0.234001
0.617423 0.918019 0.848201
0.595835 0.130068 0.725141
0.578943 0.364304 0.245738
0.093695 0.270945 0.115606
0.181796 0.705703 0.912637
0.113091 0.417508 0.371917
0.409857 0.785922 0.998877
0.931911 0.091063 0.793434
0.904165 0.130068 0.225141
0.910177 0.720069 0.108998
0.593695 0.729055 0.384394
0.688759 0.275234 0.400428
0.387721 0.086777 0.847363
0.31182 0.966651 0.493117
0.909857 0.214078 0.501123
0.906305 0.729055 0.884394
0.431911 0.908937 0.706566
0.613091 0.582492 0.128083
0.811241 0.275234 0.900428
0.188759 0.724766 0.099572
0.090143 0.785922 0.498877
0.095835 0.869932 0.774859
0.379984 0.421865 0.117969
0.410177 0.279931 0.391002
0.886909 0.582492 0.628083
0.078943 0.635696 0.254262
0.681796 0.294297 0.587363
0.18818 0.966651 0.993117
0.386909 0.417508 0.871917
0.612279 0.913223 0.152637
0.382577 0.081981 0.151799
0.112279 0.086777 0.347363
0.41811 0.588886 0.265999
0.58189 0.411114 0.734001
0.404165 0.869932 0.274859
0.882577 0.918019 0.348201
0.089823 0.279931 0.891002
0.120016 0.421865 0.617969
0.311241 0.724766 0.599572
0.568089 0.091063 0.293434
0.406305 0.270945 0.615606
0.879984 0.578135 0.382031
