LuCl3
1.0
9.982682 0.0 0.0
-4.991340849111811 8.645256297016982 0.0
2.1364471639547223e-16 9.641758085277205e-16 3.0216345443604133
Lu Cl
2 6
Direct
0.666667 0.333333 0.25
0.333333 0.666667 0.75
0.778953 0.221047 0.75
0.442095 0.221047 0.75
0.778953 0.557905 0.75
0.221047 0.778953 0.25
0.557905 0.778953 0.25
0.221047 0.442095 0.25
