CaF2
1.0
3.900438 0.0 0.0
1.9502190000000004 3.377878393886168 0.0
1.9502190000000004 0.824259535371277 2.7580261593976942
Ca F
1 2
Direct
0 0 0
0.25 0.25 0.25
0.75 0.75 0.75
