BaY2F8
1.0
6.393326 0.0 0.0
-2.4727272419449364 5.895781316264995 0.0
0.3938933722916688 0.8247435075110092 3.9425567478599204
Ba Y F
1 2 8
Direct
0 0 0.5
0.674167 0.325833 0
0.325833 0.674167 0
0.950883 0.67264 0.06403
0.67264 0.950883 0.06403
0.608801 0.608801 0.72538
0.257833 0.742167 0.5
0.742167 0.257833 0.5
0.391199 0.391199 0.27462
0.32736 0.049117 0.93597
0.049117 0.32736 0.93597
