LiYF4
1.0
6.578823 0.0 0.0
2.3837099218152877 6.131789222891501 0.0
-4.4812664517147915 -2.73919102887217 3.462341941298369
Li Y F
2 2 8
Direct
0.25 0.75 0.5
0.5 0.5 0
0 0 0
0.75 0.25 0.5
0.136512 0.252529 0.551409
0.335102 0.386512 0.383983
0.04888 0.664898 0.051409
0.747471 0.29888 0.883983
0.414898 0.863488 0.116017
0.613488 0.997471 0.948591
0.70112 0.585102 0.448591
0.002529 0.95112 0.616017
