LaIO
1.0
4.165956 0.0 0.0
2.5509123403943558e-16 4.165956 0.0
5.969432441202048e-16 2.5509123403943558e-16 9.748823
La I O
2 2 2
Direct
0 0.5 0.877971
0.5 0 0.122029
0.5 0 0.681855
0 0.5 0.318145
0 0 0
0.5 0.5 0
