LaMgAl11O19
1.0
5.64373 0.0 0.0
-2.821865426524735 4.887613305846155 0.0
1.364524364505125e-15 5.450988439324791e-16 19.298833019094126
La Mg Al O
2 2 22 38
Direct
0.333333 0.666667 0.751059
0.666667 0.333333 0.251059
0.666667 0.333333 0.526694
0.333333 0.666667 0.026694
0 0 0.50287
0 0 0.00287
0 0 0.737344
0 0 0.237344
0.16611 0.332221 0.607375
0.16611 0.83389 0.607375
0.667779 0.83389 0.607375
0.831751 0.663502 0.391627
0.831751 0.168249 0.391627
0.336498 0.168249 0.391627
0.83389 0.667779 0.107375
0.83389 0.16611 0.107375
0.332221 0.16611 0.107375
0.168249 0.336498 0.891627
0.168249 0.831751 0.891627
0.663502 0.831751 0.891627
0.666667 0.333333 0.68855
0.333333 0.666667 0.309545
0.333333 0.666667 0.18855
0.666667 0.333333 0.809545
0.333333 0.666667 0.474222
0.666667 0.333333 0.974222
0.819188 0.638377 0.749129
0.819188 0.180812 0.749129
0.361623 0.180812 0.749129
0.180812 0.361623 0.249129
0.180812 0.819188 0.249129
0.638377 0.819188 0.249129
0 0 0.653774
0 0 0.354065
0 0 0.153774
0 0 0.854065
0.333333 0.666667 0.556224
0.666667 0.333333 0.437668
0.666667 0.333333 0.056224
0.333333 0.666667 0.937668
0.85193 0.703859 0.556455
0.85193 0.14807 0.556455
0.296141 0.14807 0.556455
0.156721 0.313443 0.448948
0.156721 0.843279 0.448948
0.686557 0.843279 0.448948
0.14807 0.296141 0.056455
0.14807 0.85193 0.056455
0.703859 0.85193 0.056455
0.843279 0.686557 0.948948
0.843279 0.156721 0.948948
0.313443 0.156721 0.948948
0.492416 0.984832 0.651641
0.492416 0.507584 0.651641
0.015168 0.507584 0.651641
0.504845 0.00969 0.347524
0.504845 0.495155 0.347524
0.99031 0.495155 0.347524
0.507584 0.015168 0.151641
0.507584 0.492416 0.151641
0.984832 0.492416 0.151641
0.495155 0.99031 0.847524
0.495155 0.504845 0.847524
0.00969 0.504845 0.847524
