LuAlO3
1.0
5.119996 0.0 0.0
3.2831476436299446e-16 5.361787 0.0
4.506969643158072e-16 3.2831476436299446e-16 7.36044
Lu Al O
4 4 12
Direct
0.017124 0.936424 0.75
0.482876 0.436424 0.75
0.517124 0.563576 0.25
0.982876 0.063576 0.25
0 0.5 0
0 0.5 0.5
0.5 0 0
0.5 0 0.5
0.102102 0.46717 0.25
0.198775 0.200364 0.552919
0.198775 0.200364 0.947081
0.301225 0.700364 0.947081
0.301225 0.700364 0.552919
0.397898 0.96717 0.25
0.602102 0.03283 0.75
0.698775 0.299636 0.052919
0.698775 0.299636 0.447081
0.801225 0.799636 0.052919
0.801225 0.799636 0.447081
0.897898 0.53283 0.75
